(set-info :source |printed by MathSAT|)
(declare-fun call_ticket3i.erreur_ticket3i () Bool)
(declare-fun call_ticket3i.p3 () Int)
(declare-fun call_ticket3i.ite20 () Int)
(declare-fun call_ticket3i.g5 () Bool)
(declare-fun erreur_ticket3i () Bool)
(declare-fun t () Int)
(declare-fun call_ticket3i.flby5 () Int)
(declare-fun param_e9 () Bool)
(declare-fun param_init_a2 () Int)
(declare-fun call_ticket3i.ite2 () Int)
(declare-fun call_ticket3i.ite24 () Int)
(declare-fun call_ticket3i.ite29 () Int)
(declare-fun call_ticket3i.ite15 () Int)
(declare-fun call_ticket3i.a2 () Int)
(declare-fun call_ticket3i.ite16 () Int)
(declare-fun call_ticket3i.ite26 () Int)
(declare-fun call_excludes9.excludes () Bool)
(declare-fun p3 () Int)
(declare-fun call_ticket3i.ite34 () Int)
(declare-fun call_ticket3i.g7 () Bool)
(declare-fun a3 () Int)
(declare-fun call_ticket3i.ite30 () Int)
(declare-fun call_ticket3i.ite28 () Int)
(declare-fun call_ticket3i.g9 () Bool)
(declare-fun call_ticket3i.flby6 () Int)
(declare-fun call_ticket3i.ite () Bool)
(declare-fun call_ticket3i.s () Int)
(declare-fun param_init_t () Int)
(declare-fun call_ticket3i.ite23 () Int)
(declare-fun call_ticket3i.g6 () Bool)
(declare-fun a1 () Int)
(declare-fun call_ticket3i.ite11 () Int)
(declare-fun call_ticket3i.g3 () Bool)
(declare-fun call_ticket3i.ite6 () Int)
(declare-fun param_e8 () Bool)
(declare-fun call_ticket3i.ite32 () Int)
(declare-fun call_ticket3i.ite36 () Int)
(declare-fun call_ticket3i.ite21 () Int)
(declare-fun param_e4 () Bool)
(declare-fun param_e1 () Bool)
(declare-fun call_ticket3i.t () Int)
(declare-fun call_ticket3i.ite9 () Int)
(declare-fun param_e2 () Bool)
(declare-fun call_ticket3i.ite25 () Int)
(declare-fun call_ticket3i.ite13 () Int)
(declare-fun call_ticket3i.ite22 () Int)
(declare-fun call_ticket3i.ite5 () Int)
(declare-fun call_ticket3i.flby7 () Int)
(declare-fun call_ticket3i.ite4 () Int)
(declare-fun call_ticket3i.p2 () Int)
(declare-fun call_Sofar.flby () Bool)
(declare-fun call_ticket3i.ite19 () Int)
(declare-fun env () Bool)
(declare-fun call_ticket3i.a3 () Int)
(declare-fun p2 () Int)
(declare-fun call_ticket3i.g1 () Bool)
(declare-fun call_ticket3i.p1 () Int)
(declare-fun call_ticket3i.flby3 () Int)
(declare-fun call_ticket3i.ite37 () Int)
(declare-fun call_ticket3i.ite8 () Int)
(declare-fun call_ticket3i.g4 () Bool)
(declare-fun _OK_ () Bool)
(declare-fun p1 () Int)
(declare-fun call_ticket3i.ite31 () Int)
(declare-fun call_ticket3i.a1 () Int)
(declare-fun call_ticket3i.ite10 () Int)
(declare-fun param_e6 () Bool)
(declare-fun call_ticket3i.g8 () Bool)
(declare-fun a2 () Int)
(declare-fun call_ticket3i.g2 () Bool)
(declare-fun call_ticket3i.ite18 () Int)
(declare-fun call_ticket3i.flby8 () Int)
(declare-fun call_ticket3i.ite14 () Int)
(declare-fun call_ticket3i.flby4 () Int)
(declare-fun param_e7 () Bool)
(declare-fun call_ticket3i.ite3 () Int)
(declare-fun param_e5 () Bool)
(declare-fun call_ticket3i.flby2 () Int)
(declare-fun call_ticket3i.ite17 () Int)
(declare-fun call_ticket3i.ite7 () Int)
(declare-fun call_ticket3i.ite27 () Int)
(declare-fun call_ticket3i.ite12 () Int)
(declare-fun call_ticket3i.ite35 () Int)
(declare-fun call_ticket3i.flby () Int)
(declare-fun call_ticket3i.ite33 () Int)
(declare-fun call_Sofar.Sofar () Bool)
(declare-fun s () Int)
(declare-fun param_init_a3 () Int)
(declare-fun param_e3 () Bool)
(declare-fun param_init_a1 () Int)
(define-fun .def_1310 () Bool (= call_Sofar.flby call_Sofar.Sofar))
(define-fun .def_1174 () Bool (not param_e2))
(define-fun .def_958 () Bool (not param_e1))
(define-fun .def_1247 () Bool (and .def_958 .def_1174))
(define-fun .def_965 () Bool (not param_e3))
(define-fun .def_1248 () Bool (and .def_965 .def_1247))
(define-fun .def_972 () Bool (not param_e4))
(define-fun .def_1249 () Bool (and .def_972 .def_1248))
(define-fun .def_1206 () Bool (not param_e5))
(define-fun .def_1250 () Bool (and .def_1206 .def_1249))
(define-fun .def_979 () Bool (not param_e6))
(define-fun .def_1251 () Bool (and .def_979 .def_1250))
(define-fun .def_935 () Bool (not param_e7))
(define-fun .def_1252 () Bool (and .def_935 .def_1251))
(define-fun .def_1121 () Bool (not param_e8))
(define-fun .def_1253 () Bool (and .def_1121 .def_1252))
(define-fun .def_946 () Bool (not param_e9))
(define-fun .def_1298 () Bool (and .def_946 .def_1253))
(define-fun .def_1290 () Bool (and param_e1 .def_1174))
(define-fun .def_1291 () Bool (and .def_965 .def_1290))
(define-fun .def_1292 () Bool (and .def_972 .def_1291))
(define-fun .def_1293 () Bool (and .def_1206 .def_1292))
(define-fun .def_1294 () Bool (and .def_979 .def_1293))
(define-fun .def_1295 () Bool (and .def_935 .def_1294))
(define-fun .def_1296 () Bool (and .def_1121 .def_1295))
(define-fun .def_1297 () Bool (and .def_946 .def_1296))
(define-fun .def_1299 () Bool (or .def_1297 .def_1298))
(define-fun .def_1282 () Bool (and .def_958 param_e2))
(define-fun .def_1283 () Bool (and .def_965 .def_1282))
(define-fun .def_1284 () Bool (and .def_972 .def_1283))
(define-fun .def_1285 () Bool (and .def_1206 .def_1284))
(define-fun .def_1286 () Bool (and .def_979 .def_1285))
(define-fun .def_1287 () Bool (and .def_935 .def_1286))
(define-fun .def_1288 () Bool (and .def_1121 .def_1287))
(define-fun .def_1289 () Bool (and .def_946 .def_1288))
(define-fun .def_1300 () Bool (or .def_1289 .def_1299))
(define-fun .def_1275 () Bool (and param_e3 .def_1247))
(define-fun .def_1276 () Bool (and .def_972 .def_1275))
(define-fun .def_1277 () Bool (and .def_1206 .def_1276))
(define-fun .def_1278 () Bool (and .def_979 .def_1277))
(define-fun .def_1279 () Bool (and .def_935 .def_1278))
(define-fun .def_1280 () Bool (and .def_1121 .def_1279))
(define-fun .def_1281 () Bool (and .def_946 .def_1280))
(define-fun .def_1301 () Bool (or .def_1281 .def_1300))
(define-fun .def_1269 () Bool (and param_e4 .def_1248))
(define-fun .def_1270 () Bool (and .def_1206 .def_1269))
(define-fun .def_1271 () Bool (and .def_979 .def_1270))
(define-fun .def_1272 () Bool (and .def_935 .def_1271))
(define-fun .def_1273 () Bool (and .def_1121 .def_1272))
(define-fun .def_1274 () Bool (and .def_946 .def_1273))
(define-fun .def_1302 () Bool (or .def_1274 .def_1301))
(define-fun .def_1264 () Bool (and param_e5 .def_1249))
(define-fun .def_1265 () Bool (and .def_979 .def_1264))
(define-fun .def_1266 () Bool (and .def_935 .def_1265))
(define-fun .def_1267 () Bool (and .def_1121 .def_1266))
(define-fun .def_1268 () Bool (and .def_946 .def_1267))
(define-fun .def_1303 () Bool (or .def_1268 .def_1302))
(define-fun .def_1260 () Bool (and param_e6 .def_1250))
(define-fun .def_1261 () Bool (and .def_935 .def_1260))
(define-fun .def_1262 () Bool (and .def_1121 .def_1261))
(define-fun .def_1263 () Bool (and .def_946 .def_1262))
(define-fun .def_1304 () Bool (or .def_1263 .def_1303))
(define-fun .def_1257 () Bool (and param_e7 .def_1251))
(define-fun .def_1258 () Bool (and .def_1121 .def_1257))
(define-fun .def_1259 () Bool (and .def_946 .def_1258))
(define-fun .def_1305 () Bool (or .def_1259 .def_1304))
(define-fun .def_1255 () Bool (and param_e8 .def_1252))
(define-fun .def_1256 () Bool (and .def_946 .def_1255))
(define-fun .def_1306 () Bool (or .def_1256 .def_1305))
(define-fun .def_1254 () Bool (and param_e9 .def_1253))
(define-fun .def_1307 () Bool (or .def_1254 .def_1306))
(define-fun .def_1308 () Bool (= call_excludes9.excludes .def_1307))
(define-fun .def_1245 () Bool (= call_ticket3i.erreur_ticket3i call_ticket3i.ite))
(define-fun .def_1243 () Bool (= call_ticket3i.flby8 call_ticket3i.a3))
(define-fun .def_1241 () Bool (= call_ticket3i.flby7 call_ticket3i.a2))
(define-fun .def_1239 () Bool (= call_ticket3i.flby6 call_ticket3i.a1))
(define-fun .def_1237 () Bool (= call_ticket3i.flby5 call_ticket3i.s))
(define-fun .def_1235 () Bool (= call_ticket3i.flby4 call_ticket3i.t))
(define-fun .def_1233 () Bool (= call_ticket3i.flby3 call_ticket3i.p3))
(define-fun .def_1231 () Bool (= call_ticket3i.flby2 call_ticket3i.p2))
(define-fun .def_1228 () Bool (= call_ticket3i.flby call_ticket3i.p1))
(define-fun .def_1222 () Bool (<= 3 call_ticket3i.p3))
(define-fun .def_1220 () Bool (<= 3 call_ticket3i.p2))
(define-fun .def_1219 () Bool (<= 3 call_ticket3i.p1))
(define-fun .def_1221 () Bool (or .def_1219 .def_1220))
(define-fun .def_1223 () Bool (or .def_1221 .def_1222))
(define-fun .def_1225 () Bool (not .def_1223))
(define-fun .def_1226 () Bool (or call_ticket3i.ite .def_1225))
(define-fun .def_1218 () Bool (not call_ticket3i.ite))
(define-fun .def_1224 () Bool (or .def_1218 .def_1223))
(define-fun .def_1227 () Bool (and .def_1224 .def_1226))
(define-fun .def_1229 () Bool (and .def_1227 .def_1228))
(define-fun .def_1213 () Bool (= call_ticket3i.ite30 call_ticket3i.ite27))
(define-fun .def_1214 () Bool (or .def_979 .def_1213))
(define-fun .def_1210 () Bool (= call_ticket3i.ite29 call_ticket3i.ite30))
(define-fun .def_1211 () Bool (or param_e6 .def_1210))
(define-fun .def_1215 () Bool (and .def_1211 .def_1214))
(define-fun .def_1205 () Bool (= call_ticket3i.ite9 call_ticket3i.ite12))
(define-fun .def_1207 () Bool (or .def_1205 .def_1206))
(define-fun .def_1202 () Bool (= call_ticket3i.ite11 call_ticket3i.ite12))
(define-fun .def_1204 () Bool (or .def_1202 param_e5))
(define-fun .def_1208 () Bool (and .def_1204 .def_1207))
(define-fun .def_1198 () Bool (= call_ticket3i.ite23 call_ticket3i.ite24))
(define-fun .def_1199 () Bool (or param_e4 .def_1198))
(define-fun .def_1195 () Bool (= call_ticket3i.ite24 call_ticket3i.ite21))
(define-fun .def_1196 () Bool (or .def_972 .def_1195))
(define-fun .def_1191 () Bool (= call_ticket3i.ite8 call_ticket3i.ite13))
(define-fun .def_1192 () Bool (or .def_972 .def_1191))
(define-fun .def_1189 () Bool (= call_ticket3i.ite13 call_ticket3i.ite12))
(define-fun .def_1190 () Bool (or param_e4 .def_1189))
(define-fun .def_1193 () Bool (and .def_1190 .def_1192))
(define-fun .def_1197 () Bool (and .def_1193 .def_1196))
(define-fun .def_1200 () Bool (and .def_1197 .def_1199))
(define-fun .def_1183 () Bool (= call_ticket3i.ite31 call_ticket3i.ite26))
(define-fun .def_1184 () Bool (or .def_965 .def_1183))
(define-fun .def_1180 () Bool (= call_ticket3i.ite31 call_ticket3i.ite30))
(define-fun .def_1181 () Bool (or param_e3 .def_1180))
(define-fun .def_1185 () Bool (and .def_1181 .def_1184))
(define-fun .def_1173 () Bool (= call_ticket3i.ite3 call_ticket3i.ite6))
(define-fun .def_1175 () Bool (or .def_1173 .def_1174))
(define-fun .def_1170 () Bool (= call_ticket3i.ite5 call_ticket3i.ite6))
(define-fun .def_1172 () Bool (or .def_1170 param_e2))
(define-fun .def_1176 () Bool (and .def_1172 .def_1175))
(define-fun .def_1166 () Bool (= call_ticket3i.ite25 call_ticket3i.ite24))
(define-fun .def_1167 () Bool (or param_e1 .def_1166))
(define-fun .def_1162 () Bool (= call_ticket3i.ite20 call_ticket3i.ite25))
(define-fun .def_1163 () Bool (or .def_958 .def_1162))
(define-fun .def_1157 () Bool (= call_ticket3i.ite2 call_ticket3i.ite7))
(define-fun .def_1158 () Bool (or .def_958 .def_1157))
(define-fun .def_1155 () Bool (= call_ticket3i.ite7 call_ticket3i.ite6))
(define-fun .def_1156 () Bool (or param_e1 .def_1155))
(define-fun .def_1159 () Bool (and .def_1156 .def_1158))
(define-fun .def_1164 () Bool (and .def_1159 .def_1163))
(define-fun .def_1168 () Bool (and .def_1164 .def_1167))
(define-fun .def_1151 () Bool (= env call_Sofar.Sofar))
(define-fun .def_1148 () Bool (= erreur_ticket3i call_ticket3i.erreur_ticket3i))
(define-fun .def_1145 () Bool (= a3 call_ticket3i.a3))
(define-fun .def_1141 () Bool (= a2 call_ticket3i.a2))
(define-fun .def_1137 () Bool (= a1 call_ticket3i.a1))
(define-fun .def_1133 () Bool (= s call_ticket3i.s))
(define-fun .def_1129 () Bool (= call_ticket3i.t t))
(define-fun .def_1126 () Bool (= p3 call_ticket3i.p3))
(define-fun .def_1120 () Bool (= call_ticket3i.ite15 call_ticket3i.ite18))
(define-fun .def_1122 () Bool (or .def_1120 .def_1121))
(define-fun .def_1117 () Bool (= call_ticket3i.ite17 call_ticket3i.ite18))
(define-fun .def_1119 () Bool (or .def_1117 param_e8))
(define-fun .def_1123 () Bool (and .def_1119 .def_1122))
(define-fun .def_1115 () Bool (= p2 call_ticket3i.p2))
(define-fun .def_1112 () Bool (= p1 call_ticket3i.p1))
(define-fun .def_1107 () Bool (= call_ticket3i.ite14 call_ticket3i.ite19))
(define-fun .def_1108 () Bool (or .def_935 .def_1107))
(define-fun .def_1105 () Bool (= call_ticket3i.ite19 call_ticket3i.ite18))
(define-fun .def_1106 () Bool (or param_e7 .def_1105))
(define-fun .def_1109 () Bool (and .def_1106 .def_1108))
(define-fun .def_1094 () Int (* (- 1) p2))
(define-fun .def_1097 () Int (+ .def_1094 p3))
(define-fun .def_1098 () Int (+ p1 .def_1097))
(define-fun .def_1099 () Bool (<= .def_1098 9))
(define-fun .def_1092 () Bool (<= p3 3))
(define-fun .def_1090 () Bool (<= 0 p3))
(define-fun .def_1087 () Bool (<= p2 3))
(define-fun .def_1085 () Bool (<= 0 p2))
(define-fun .def_1082 () Bool (<= p1 3))
(define-fun .def_1080 () Bool (<= 0 p1))
(define-fun .def_1078 () Bool (not erreur_ticket3i))
(define-fun .def_1081 () Bool (and .def_1078 .def_1080))
(define-fun .def_1083 () Bool (and .def_1081 .def_1082))
(define-fun .def_1086 () Bool (and .def_1083 .def_1085))
(define-fun .def_1088 () Bool (and .def_1086 .def_1087))
(define-fun .def_1091 () Bool (and .def_1088 .def_1090))
(define-fun .def_1093 () Bool (and .def_1091 .def_1092))
(define-fun .def_1100 () Bool (and .def_1093 .def_1099))
(define-fun .def_1076 () Bool (not env))
(define-fun .def_1101 () Bool (or .def_1076 .def_1100))
(define-fun .def_1102 () Bool (= _OK_ .def_1101))
(define-fun .def_1110 () Bool (and .def_1102 .def_1109))
(define-fun .def_1113 () Bool (and .def_1110 .def_1112))
(define-fun .def_1116 () Bool (and .def_1113 .def_1115))
(define-fun .def_1124 () Bool (and .def_1116 .def_1123))
(define-fun .def_1127 () Bool (and .def_1124 .def_1126))
(define-fun .def_1130 () Bool (and .def_1127 .def_1129))
(define-fun .def_1134 () Bool (and .def_1130 .def_1133))
(define-fun .def_1138 () Bool (and .def_1134 .def_1137))
(define-fun .def_1142 () Bool (and .def_1138 .def_1141))
(define-fun .def_1146 () Bool (and .def_1142 .def_1145))
(define-fun .def_1149 () Bool (and .def_1146 .def_1148))
(define-fun .def_1152 () Bool (and .def_1149 .def_1151))
(define-fun .def_1169 () Bool (and .def_1152 .def_1168))
(define-fun .def_1177 () Bool (and .def_1169 .def_1176))
(define-fun .def_1186 () Bool (and .def_1177 .def_1185))
(define-fun .def_1201 () Bool (and .def_1186 .def_1200))
(define-fun .def_1209 () Bool (and .def_1201 .def_1208))
(define-fun .def_1216 () Bool (and .def_1209 .def_1215))
(define-fun .def_1230 () Bool (and .def_1216 .def_1229))
(define-fun .def_1232 () Bool (and .def_1230 .def_1231))
(define-fun .def_1234 () Bool (and .def_1232 .def_1233))
(define-fun .def_1236 () Bool (and .def_1234 .def_1235))
(define-fun .def_1238 () Bool (and .def_1236 .def_1237))
(define-fun .def_1240 () Bool (and .def_1238 .def_1239))
(define-fun .def_1242 () Bool (and .def_1240 .def_1241))
(define-fun .def_1244 () Bool (and .def_1242 .def_1243))
(define-fun .def_1246 () Bool (and .def_1244 .def_1245))
(define-fun .def_1309 () Bool (and .def_1246 .def_1308))
(define-fun .def_1311 () Bool (and .def_1309 .def_1310))
(define-fun .def_1069 () Bool (<= 0 param_init_t))
(define-fun .def_1067 () Bool (<= 0 param_init_a3))
(define-fun .def_1065 () Bool (<= 0 param_init_a2))
(define-fun .def_1062 () Bool (<= 0 param_init_a1))
(define-fun .def_1064 () Bool (and .def_1062 call_excludes9.excludes))
(define-fun .def_1066 () Bool (and .def_1064 .def_1065))
(define-fun .def_1068 () Bool (and .def_1066 .def_1067))
(define-fun .def_1070 () Bool (and .def_1068 .def_1069))
(define-fun .def_1072 () Bool (= .def_1070 call_Sofar.flby))
(define-fun .def_1060 () Bool (= param_init_a3 call_ticket3i.flby8))
(define-fun .def_1056 () Bool (= param_init_a2 call_ticket3i.flby7))
(define-fun .def_1052 () Bool (= param_init_a1 call_ticket3i.flby6))
(define-fun .def_1048 () Bool (= call_ticket3i.t call_ticket3i.flby5))
(define-fun .def_1044 () Bool (= param_init_t call_ticket3i.flby4))
(define-fun .def_1040 () Bool (= call_ticket3i.flby3 0))
(define-fun .def_1037 () Bool (= call_ticket3i.flby2 0))
(define-fun .def_1034 () Bool (= call_ticket3i.flby 0))
(define-fun .def_1030 () Bool (= call_ticket3i.ite16 0))
(define-fun .def_1029 () Bool (not call_ticket3i.g9))
(define-fun .def_1031 () Bool (or .def_1029 .def_1030))
(define-fun .def_1025 () Bool (= call_ticket3i.ite15 2))
(define-fun .def_1023 () Bool (not call_ticket3i.g8))
(define-fun .def_1026 () Bool (or .def_1023 .def_1025))
(define-fun .def_1019 () Bool (= call_ticket3i.ite14 1))
(define-fun .def_1017 () Bool (not call_ticket3i.g7))
(define-fun .def_1020 () Bool (or .def_1017 .def_1019))
(define-fun .def_1013 () Bool (= call_ticket3i.ite10 0))
(define-fun .def_1012 () Bool (not call_ticket3i.g6))
(define-fun .def_1014 () Bool (or .def_1012 .def_1013))
(define-fun .def_1008 () Bool (= call_ticket3i.ite9 2))
(define-fun .def_1006 () Bool (not call_ticket3i.g5))
(define-fun .def_1009 () Bool (or .def_1006 .def_1008))
(define-fun .def_1002 () Bool (= call_ticket3i.ite8 1))
(define-fun .def_1000 () Bool (not call_ticket3i.g4))
(define-fun .def_1003 () Bool (or .def_1000 .def_1002))
(define-fun .def_996 () Bool (= call_ticket3i.ite4 0))
(define-fun .def_995 () Bool (not call_ticket3i.g3))
(define-fun .def_997 () Bool (or .def_995 .def_996))
(define-fun .def_991 () Bool (= call_ticket3i.ite3 2))
(define-fun .def_989 () Bool (not call_ticket3i.g2))
(define-fun .def_992 () Bool (or .def_989 .def_991))
(define-fun .def_985 () Bool (= call_ticket3i.ite2 1))
(define-fun .def_983 () Bool (not call_ticket3i.g1))
(define-fun .def_986 () Bool (or .def_983 .def_985))
(define-fun .def_977 () Bool (= call_ticket3i.ite10 call_ticket3i.ite11))
(define-fun .def_980 () Bool (or .def_977 .def_979))
(define-fun .def_970 () Bool (= call_ticket3i.ite35 call_ticket3i.ite34))
(define-fun .def_973 () Bool (or .def_970 .def_972))
(define-fun .def_963 () Bool (= call_ticket3i.ite4 call_ticket3i.ite5))
(define-fun .def_966 () Bool (or .def_963 .def_965))
(define-fun .def_956 () Bool (= call_ticket3i.ite33 call_ticket3i.ite32))
(define-fun .def_959 () Bool (or .def_956 .def_958))
(define-fun .def_950 () Bool (= call_ticket3i.ite16 call_ticket3i.ite17))
(define-fun .def_951 () Bool (or .def_946 .def_950))
(define-fun .def_944 () Bool (= call_ticket3i.ite28 call_ticket3i.ite29))
(define-fun .def_947 () Bool (or .def_944 .def_946))
(define-fun .def_952 () Bool (and .def_947 .def_951))
(define-fun .def_939 () Bool (= call_ticket3i.ite22 call_ticket3i.ite23))
(define-fun .def_940 () Bool (or .def_935 .def_939))
(define-fun .def_933 () Bool (= call_ticket3i.ite37 call_ticket3i.ite36))
(define-fun .def_936 () Bool (or .def_933 .def_935))
(define-fun .def_941 () Bool (and .def_936 .def_940))
(define-fun .def_953 () Bool (and .def_941 .def_952))
(define-fun .def_960 () Bool (and .def_953 .def_959))
(define-fun .def_967 () Bool (and .def_960 .def_966))
(define-fun .def_974 () Bool (and .def_967 .def_973))
(define-fun .def_981 () Bool (and .def_974 .def_980))
(define-fun .def_987 () Bool (and .def_981 .def_986))
(define-fun .def_993 () Bool (and .def_987 .def_992))
(define-fun .def_998 () Bool (and .def_993 .def_997))
(define-fun .def_1004 () Bool (and .def_998 .def_1003))
(define-fun .def_1010 () Bool (and .def_1004 .def_1009))
(define-fun .def_1015 () Bool (and .def_1010 .def_1014))
(define-fun .def_1021 () Bool (and .def_1015 .def_1020))
(define-fun .def_1027 () Bool (and .def_1021 .def_1026))
(define-fun .def_1032 () Bool (and .def_1027 .def_1031))
(define-fun .def_1035 () Bool (and .def_1032 .def_1034))
(define-fun .def_1038 () Bool (and .def_1035 .def_1037))
(define-fun .def_1041 () Bool (and .def_1038 .def_1040))
(define-fun .def_1045 () Bool (and .def_1041 .def_1044))
(define-fun .def_1049 () Bool (and .def_1045 .def_1048))
(define-fun .def_1053 () Bool (and .def_1049 .def_1052))
(define-fun .def_1057 () Bool (and .def_1053 .def_1056))
(define-fun .def_1061 () Bool (and .def_1057 .def_1060))
(define-fun .def_1073 () Bool (and .def_1061 .def_1072))
(define-fun .def_1312 () Bool (and .def_1073 .def_1311))
(assert .def_1312)
